p cnf 20 73
-6 11 12 0
17 -18 -20 0
6 -9 -13 0
7 -10 -18 0
11 14 17 0
10 -18 -20 0
-7 9 -15 0
-9 -15 18 0
-6 -15 -16 0
7 -12 -15 0
-6 7 16 0
-1 12 -13 0
-3 -10 -18 0
-6 11 13 0
-3 -8 17 0
13 -15 19 0
-1 -5 11 0
-7 8 -19 0
-5 8 -15 0
1 5 -12 0
6 8 -20 0
-13 19 20 0
-2 -7 14 0
10 -13 19 0
-2 -4 -7 0
-1 8 -11 0
6 -14 -15 0
13 -15 -19 0
-1 4 17 0
-2 7 12 0
-1 6 -14 0
-6 -14 19 0
-6 17 20 0
2 -3 19 0
-8 9 -14 0
-3 -10 12 0
-5 8 -13 0
10 -14 -19 0
7 8 -12 0
-14 -15 17 0
2 11 -18 0
-3 10 -14 0
-10 -13 -15 0
-2 14 18 0
2 4 -11 0
14 -15 -17 0
-1 5 -13 0
11 15 20 0
-2 7 -14 0
2 -5 6 0
8 9 -16 0
-10 -13 14 0
8 -12 -14 0
2 -4 6 0
-9 -18 19 0
2 6 7 0
-1 -4 -17 0
-4 5 -18 0
-1 4 12 0
7 9 10 0
-2 -15 -17 0
3 11 16 0
-2 8 -10 0
5 9 13 0
6 14 -15 0
-2 -12 -20 0
-4 5 9 0
6 12 -20 0
6 18 -19 0
-3 14 15 0
7 11 -15 0
-7 -10 -17 0
3 -7 -8 0
